n= 1
m= 50
1000
659	24	4
434	49	7
409	56	8
294	42	7
663	8	1
527	10	2
759	54	9
601	45	9
324	56	7
540	40	5
275	63	9
525	8	1
456	42	7
799	72	9
748	18	3
650	42	6
500	54	9
235	30	5
704	48	8
457	16	2
760	56	7
779	24	3
221	35	5
772	12	2
725	42	6
594	7	1
255	12	2
592	36	6
548	7	1
465	42	6
330	30	6
787	18	2
336	30	6
249	27	3
492	24	4
655	72	8
370	72	8
200	40	8
207	8	1
476	81	9
542	14	2
394	8	1
447	24	4
758	54	9
451	15	3
755	63	7
763	30	5
730	12	2
270	32	4
645	45	5
